144
Route #1: 1 
Route #2: 2 56 
Route #3: 3 31 45 65 
Route #4: 4 41 83 
Route #5: 5 28 
Route #6: 6 18 46 
Route #7: 7 58 88 
Route #8: 8 
Route #9: 9 32 
Route #10: 10 33 
Route #11: 11 72 76 127 
Route #12: 12 48 
Route #13: 13 68 
Route #14: 14 
Route #15: 15 49 
Route #16: 16 61 93 113 
Route #17: 17 75 
Route #18: 19 59 
Route #19: 20 
Route #20: 21 60 
Route #21: 22 55 
Route #22: 23 52 86 
Route #23: 24 51 67 
Route #24: 25 50 84 
Route #25: 26 74 114 
Route #26: 27 63 
Route #27: 29 62 89 108 
Route #28: 30 78 142 
Route #29: 34 98 
Route #30: 35 100 
Route #31: 36 106 
Route #32: 37 
Route #33: 38 79 162 
Route #34: 39 110 
Route #35: 40 66 90 136 
Route #36: 42 53 91 139 
Route #37: 43 87 119 
Route #38: 44 122 155 
Route #39: 47 73 
Route #40: 54 129 
Route #41: 57 85 146 
Route #42: 64 140 
Route #43: 69 104 131 160 
Route #44: 70 107 124 169 
Route #45: 71 126 
Route #46: 77 102 116 149 
Route #47: 80 103 143 
Route #48: 81 137 
Route #49: 82 130 
Route #50: 92 178 
Route #51: 94 158 176 
Route #52: 95 179 201 
Route #53: 96 144 
Route #54: 97 175 
Route #55: 99 152 200 
Route #56: 101 123 187 
Route #57: 105 128 183 
Route #58: 109 181 
Route #59: 111 163 
Route #60: 112 170 
Route #61: 115 195 
Route #62: 117 132 177 
Route #63: 118 151 184 194 
Route #64: 120 171 
Route #65: 121 165 193 206 
Route #66: 125 173 185 
Route #67: 133 199 
Route #68: 134 182 219 
Route #69: 135 156 
Route #70: 138 204 248 
Route #71: 141 186 
Route #72: 145 172 217 
Route #73: 147 205 
Route #74: 148 212 
Route #75: 150 214 
Route #76: 153 202 226 
Route #77: 154 192 209 216 
Route #78: 157 210 222 
Route #79: 159 180 227 
Route #80: 161 203 
Route #81: 164 224 
Route #82: 166 191 240 
Route #83: 167 221 244 
Route #84: 168 228 
Route #85: 174 229 
Route #86: 188 251 
Route #87: 189 234 266 
Route #88: 190 230 
Route #89: 196 233 281 
Route #90: 197 231 246 280 
Route #91: 198 261 
Route #92: 207 259 
Route #93: 208 
Route #94: 211 257 
Route #95: 213 242 294 
Route #96: 215 262 
Route #97: 218 263 
Route #98: 220 249 267 
Route #99: 223 284 
Route #100: 225 237 273 
Route #101: 232 301 
Route #102: 235 256 292 
Route #103: 236 307 314 
Route #104: 238 304 
Route #105: 239 275 
Route #106: 241 254 297 
Route #107: 243 299 343 
Route #108: 245 288 310 330 
Route #109: 247 306 
Route #110: 250 276 308 
Route #111: 252 279 
Route #112: 253 291 345 
Route #113: 255 312 334 
Route #114: 258 320 
Route #115: 260 322 
Route #116: 264 329 350 
Route #117: 265 315 
Route #118: 268 328 
Route #119: 269 346 
Route #120: 270 311 
Route #121: 271 295 338 
Route #122: 272 324 
Route #123: 274 318 331 
Route #124: 277 316 
Route #125: 278 333 
Route #126: 282 342 
Route #127: 283 326 
Route #128: 285 302 
Route #129: 286 336 
Route #130: 287 296 339 
Route #131: 289 327 
Route #132: 290 340 
Route #133: 293 321 
Route #134: 298 319 348 
Route #135: 300 323 
Route #136: 303 325 
Route #137: 305 
Route #138: 309 
Route #139: 313 349 
Route #140: 317 335 
Route #141: 332 347 
Route #142: 337 
Route #143: 341 
Route #144: 344 
Cost 244559.0
